Features/ForMiniZinc/benchmark_puzzles/benchmarks4x4/65/puzzle2.dzn
S = 4;
start = [|16,0,0,6,13,0,3,0,9,0,0,0,14,0,0,0|
0,4,12,0,0,0,0,0,0,0,0,13,1,0,10,0|
1,0,0,2,0,0,0,0,0,14,0,0,0,0,12,0|
15,13,14,10,0,0,11,0,0,0,0,0,7,0,6,9|
0,0,0,0,0,6,0,0,0,13,0,11,9,0,0,16|
0,0,0,0,0,0,10,3,15,0,0,16,0,11,0,0|
0,0,0,14,2,11,13,0,4,0,0,12,0,6,0,10|
7,10,16,0,0,12,1,0,0,6,0,0,2,0,0,15|
2,16,0,0,12,0,0,14,13,0,0,0,0,1,15,0|
13,3,0,0,10,15,0,11,14,16,0,0,0,0,0,8|
0,15,0,0,0,0,0,0,0,0,0,0,0,0,0,0|
0,0,0,0,0,13,16,0,0,0,0,2,0,7,9,0|
12,0,0,0,0,10,0,0,0,0,0,0,3,2,0,7|
0,5,0,0,8,3,0,0,2,10,0,0,15,0,1,12|
10,0,1,0,6,0,0,0,0,0,3,0,0,0,0,0|
0,0,3,0,0,0,14,0,0,0,16,0,11,0,13,6|];